benchmarks_CP/INST_36x36/35/inst36x36_35_95.dzn
S=6;
start=[|
-1,	-1,	20,	-1,	-1,	3,	-1,	-1,	23,	7,	-1,	-1,	26,	-1,	18,	-1,	-1,	2,	-1,	-1,	-1,	-1,	-1,	-1,	-1,	-1,	-1,	-1,	-1,	-1,	35,	-1,	-1,	6,	-1,	19|
1,	-1,	25,	11,	23,	-1,	32,	-1,	18,	-1,	-1,	-1,	-1,	-1,	-1,	16,	-1,	-1,	-1,	5,	-1,	14,	-1,	36,	-1,	34,	-1,	31,	-1,	28,	-1,	9,	-1,	-1,	29,	-1|
31,	-1,	12,	-1,	-1,	-1,	-1,	-1,	-1,	-1,	-1,	-1,	3,	14,	23,	29,	-1,	-1,	-1,	35,	20,	25,	13,	-1,	-1,	-1,	-1,	36,	-1,	-1,	11,	-1,	2,	-1,	21,	-1|
18,	-1,	-1,	9,	26,	-1,	-1,	20,	-1,	34,	25,	-1,	21,	-1,	-1,	22,	15,	-1,	-1,	-1,	1,	12,	-1,	-1,	-1,	-1,	23,	-1,	-1,	17,	31,	-1,	10,	-1,	-1,	5|
-1,	-1,	-1,	35,	-1,	-1,	-1,	-1,	-1,	-1,	-1,	-1,	17,	-1,	-1,	-1,	13,	-1,	31,	28,	21,	-1,	-1,	-1,	3,	-1,	6,	-1,	1,	-1,	-1,	23,	26,	-1,	-1,	-1|
-1,	-1,	5,	-1,	-1,	32,	15,	-1,	-1,	-1,	16,	13,	10,	20,	-1,	-1,	-1,	-1,	-1,	-1,	-1,	-1,	-1,	-1,	-1,	29,	-1,	25,	21,	2,	-1,	3,	7,	-1,	18,	-1|
-1,	-1,	-1,	-1,	32,	34,	11,	-1,	33,	-1,	-1,	-1,	-1,	-1,	-1,	-1,	-1,	1,	-1,	-1,	-1,	-1,	-1,	-1,	-1,	-1,	36,	-1,	-1,	35,	19,	28,	-1,	9,	-1,	10|
21,	-1,	17,	-1,	-1,	-1,	-1,	-1,	8,	1,	9,	-1,	13,	2,	3,	-1,	-1,	31,	11,	-1,	27,	-1,	15,	-1,	10,	24,	12,	20,	-1,	-1,	-1,	-1,	-1,	25,	6,	-1|
3,	-1,	6,	20,	-1,	-1,	-1,	21,	32,	-1,	29,	14,	30,	5,	26,	-1,	-1,	36,	35,	24,	-1,	-1,	17,	-1,	-1,	-1,	-1,	-1,	34,	-1,	7,	31,	-1,	15,	-1,	-1|
-1,	8,	-1,	-1,	1,	-1,	28,	-1,	-1,	-1,	31,	-1,	23,	9,	-1,	-1,	-1,	-1,	-1,	-1,	-1,	-1,	-1,	25,	21,	-1,	29,	5,	7,	-1,	-1,	-1,	-1,	-1,	-1,	-1|
12,	-1,	-1,	5,	25,	-1,	18,	30,	-1,	17,	24,	-1,	35,	-1,	16,	-1,	-1,	21,	-1,	9,	28,	-1,	-1,	-1,	2,	26,	-1,	-1,	-1,	-1,	-1,	32,	33,	-1,	36,	-1|
-1,	24,	-1,	-1,	-1,	-1,	-1,	10,	36,	2,	34,	-1,	-1,	-1,	-1,	17,	-1,	14,	-1,	-1,	-1,	5,	22,	-1,	33,	-1,	-1,	30,	-1,	-1,	18,	-1,	-1,	-1,	13,	-1|
22,	12,	-1,	1,	29,	-1,	-1,	-1,	6,	-1,	-1,	-1,	4,	16,	17,	-1,	26,	-1,	24,	23,	-1,	27,	-1,	-1,	-1,	9,	21,	8,	-1,	11,	-1,	-1,	-1,	-1,	-1,	-1|
4,	-1,	-1,	-1,	-1,	-1,	29,	-1,	28,	-1,	-1,	12,	-1,	-1,	-1,	13,	-1,	-1,	-1,	8,	16,	-1,	-1,	19,	25,	14,	-1,	-1,	26,	-1,	-1,	35,	5,	-1,	-1,	-1|
-1,	5,	-1,	-1,	20,	21,	7,	-1,	-1,	-1,	-1,	16,	2,	-1,	-1,	-1,	-1,	-1,	-1,	-1,	-1,	-1,	11,	-1,	18,	-1,	17,	34,	-1,	-1,	-1,	-1,	-1,	-1,	-1,	27|
-1,	-1,	-1,	-1,	-1,	27,	30,	-1,	-1,	32,	22,	-1,	36,	7,	24,	-1,	-1,	11,	-1,	-1,	-1,	-1,	-1,	21,	-1,	-1,	35,	-1,	-1,	-1,	8,	-1,	18,	-1,	-1,	-1|
-1,	-1,	15,	32,	-1,	-1,	-1,	-1,	-1,	-1,	-1,	27,	-1,	-1,	-1,	-1,	-1,	-1,	-1,	-1,	-1,	28,	-1,	-1,	-1,	-1,	-1,	-1,	-1,	-1,	16,	21,	-1,	-1,	-1,	-1|
-1,	33,	36,	18,	-1,	-1,	-1,	-1,	-1,	-1,	17,	-1,	29,	19,	6,	-1,	-1,	-1,	-1,	-1,	-1,	-1,	-1,	32,	23,	-1,	27,	16,	-1,	-1,	-1,	-1,	-1,	-1,	-1,	9|
-1,	-1,	-1,	25,	2,	-1,	33,	-1,	-1,	-1,	-1,	35,	-1,	-1,	-1,	-1,	-1,	-1,	10,	-1,	-1,	36,	24,	-1,	17,	32,	5,	-1,	-1,	-1,	-1,	-1,	-1,	11,	-1,	-1|
-1,	28,	-1,	26,	-1,	20,	27,	-1,	-1,	-1,	1,	-1,	14,	-1,	-1,	-1,	33,	-1,	-1,	-1,	-1,	-1,	-1,	-1,	16,	-1,	34,	-1,	-1,	-1,	-1,	-1,	-1,	-1,	3,	-1|
14,	16,	-1,	-1,	3,	-1,	20,	-1,	2,	-1,	-1,	-1,	-1,	-1,	-1,	26,	18,	-1,	-1,	29,	34,	-1,	-1,	-1,	-1,	-1,	-1,	-1,	-1,	-1,	1,	25,	6,	-1,	-1,	-1|
-1,	18,	11,	-1,	-1,	22,	-1,	34,	-1,	36,	-1,	-1,	-1,	-1,	-1,	-1,	-1,	9,	-1,	14,	8,	-1,	-1,	-1,	-1,	-1,	-1,	-1,	27,	1,	-1,	-1,	28,	-1,	33,	-1|
-1,	-1,	30,	34,	21,	-1,	-1,	9,	-1,	-1,	-1,	-1,	-1,	12,	1,	4,	17,	-1,	22,	-1,	-1,	-1,	-1,	-1,	-1,	-1,	-1,	-1,	-1,	3,	36,	-1,	-1,	20,	-1,	-1|
-1,	32,	8,	-1,	4,	7,	-1,	19,	-1,	-1,	6,	10,	-1,	11,	-1,	-1,	-1,	27,	26,	13,	-1,	-1,	-1,	16,	-1,	2,	-1,	-1,	-1,	18,	22,	-1,	-1,	35,	-1,	23|
-1,	-1,	-1,	16,	-1,	-1,	1,	4,	-1,	-1,	-1,	-1,	11,	10,	35,	-1,	3,	-1,	6,	-1,	23,	-1,	27,	14,	-1,	-1,	18,	-1,	-1,	33,	24,	-1,	31,	-1,	15,	28|
-1,	9,	-1,	24,	-1,	-1,	-1,	-1,	-1,	-1,	-1,	-1,	-1,	-1,	-1,	-1,	-1,	-1,	12,	25,	-1,	29,	-1,	-1,	-1,	-1,	15,	-1,	-1,	-1,	-1,	-1,	-1,	-1,	-1,	6|
32,	-1,	-1,	-1,	-1,	-1,	-1,	-1,	-1,	-1,	-1,	-1,	-1,	-1,	-1,	21,	-1,	26,	-1,	19,	11,	-1,	-1,	-1,	34,	-1,	-1,	27,	-1,	-1,	5,	-1,	-1,	36,	-1,	30|
11,	17,	-1,	-1,	35,	-1,	-1,	-1,	-1,	-1,	15,	-1,	-1,	30,	-1,	6,	-1,	-1,	28,	-1,	36,	-1,	-1,	7,	8,	31,	4,	-1,	-1,	-1,	-1,	-1,	-1,	-1,	-1,	22|
-1,	36,	-1,	-1,	-1,	-1,	-1,	35,	-1,	28,	-1,	-1,	-1,	-1,	-1,	15,	12,	-1,	-1,	-1,	-1,	-1,	-1,	22,	-1,	20,	-1,	-1,	24,	-1,	-1,	-1,	-1,	-1,	-1,	18|
-1,	-1,	21,	14,	7,	-1,	22,	-1,	-1,	11,	-1,	-1,	-1,	-1,	-1,	-1,	-1,	-1,	-1,	-1,	-1,	-1,	8,	-1,	-1,	-1,	-1,	32,	25,	26,	13,	-1,	-1,	-1,	-1,	-1|
15,	-1,	-1,	-1,	-1,	-1,	9,	-1,	-1,	-1,	13,	21,	-1,	-1,	28,	-1,	-1,	-1,	17,	-1,	-1,	-1,	36,	-1,	-1,	25,	-1,	2,	23,	8,	12,	-1,	27,	-1,	31,	-1|
-1,	-1,	-1,	6,	-1,	-1,	14,	-1,	-1,	8,	-1,	-1,	-1,	24,	-1,	19,	4,	-1,	-1,	21,	-1,	34,	29,	-1,	-1,	-1,	33,	-1,	22,	-1,	-1,	-1,	36,	10,	-1,	25|
-1,	-1,	-1,	-1,	31,	-1,	-1,	12,	-1,	-1,	-1,	3,	-1,	-1,	-1,	-1,	6,	25,	-1,	22,	-1,	-1,	-1,	-1,	-1,	-1,	10,	-1,	-1,	-1,	-1,	15,	-1,	-1,	-1,	-1|
34,	-1,	-1,	-1,	-1,	14,	-1,	-1,	-1,	22,	2,	17,	-1,	-1,	33,	-1,	-1,	35,	-1,	31,	-1,	-1,	-1,	-1,	-1,	-1,	-1,	-1,	15,	-1,	-1,	6,	-1,	5,	7,	3|
-1,	23,	-1,	-1,	12,	-1,	-1,	-1,	24,	-1,	-1,	-1,	31,	-1,	-1,	-1,	10,	5,	-1,	-1,	-1,	-1,	35,	-1,	-1,	-1,	26,	13,	29,	-1,	33,	-1,	-1,	18,	34,	-1|
10,	-1,	32,	36,	-1,	19,	5,	-1,	-1,	23,	-1,	-1,	12,	-1,	-1,	-1,	-1,	-1,	7,	-1,	4,	11,	30,	-1,	-1,	-1,	-1,	-1,	-1,	-1,	29,	-1,	9,	-1,	-1,	-1|];
